pure_adt/tip2015_weird_nat_mul3_spec.smt2
(set-logic HORN)
(declare-datatypes ((Nat_325 0)) (((zero_66 ) (succ_65 (p_179 Nat_325)))))
(declare-fun diseqNat_325 (Nat_325 Nat_325) Bool)
(declare-fun p_180 (Nat_325 Nat_325) Bool)
(declare-fun iszero_65 (Nat_325) Bool)
(declare-fun issucc_65 (Nat_325) Bool)
(assert (forall ((x_27843 Nat_325))
	(p_180 x_27843 (succ_65 x_27843))))
(assert (iszero_65 zero_66))
(assert (forall ((x_27845 Nat_325))
	(issucc_65 (succ_65 x_27845))))
(assert (forall ((x_27846 Nat_325))
	(diseqNat_325 zero_66 (succ_65 x_27846))))
(assert (forall ((x_27847 Nat_325))
	(diseqNat_325 (succ_65 x_27847) zero_66)))
(assert (forall ((x_27848 Nat_325) (x_27849 Nat_325))
	(=> (diseqNat_325 x_27848 x_27849)
	    (diseqNat_325 (succ_65 x_27848) (succ_65 x_27849)))))
(declare-fun plus_60 (Nat_325 Nat_325 Nat_325) Bool)
(assert (forall ((x_27722 Nat_325) (z_1077 Nat_325) (y_1130 Nat_325))
	(=> (plus_60 x_27722 z_1077 y_1130)
	    (plus_60 (succ_65 x_27722) (succ_65 z_1077) y_1130))))
(assert (forall ((x_27723 Nat_325))
	(plus_60 x_27723 zero_66 x_27723)))
(declare-fun times_14 (Nat_325 Nat_325 Nat_325) Bool)
(assert (forall ((x_27724 Nat_325) (x_27725 Nat_325) (z_1078 Nat_325) (y_1131 Nat_325))
	(=>	(and (times_14 x_27725 z_1078 y_1131)
			(plus_60 x_27724 y_1131 x_27725))
		(times_14 x_27724 (succ_65 z_1078) y_1131))))
(assert (forall ((y_1131 Nat_325))
	(times_14 zero_66 zero_66 y_1131)))
(declare-fun add_200 (Nat_325 Nat_325 Nat_325 Nat_325) Bool)
(assert (forall ((x_27728 Nat_325) (x_27729 Nat_325) (x_27702 Nat_325) (y_1132 Nat_325) (z_1079 Nat_325))
	(=>	(and (add_200 x_27729 x_27702 y_1132 z_1079)
			(plus_60 x_27728 (succ_65 zero_66) x_27729))
		(add_200 x_27728 (succ_65 x_27702) y_1132 z_1079))))
(assert (forall ((x_27731 Nat_325) (x_27732 Nat_325) (x_27703 Nat_325) (z_1079 Nat_325))
	(=>	(and (add_200 x_27732 zero_66 x_27703 z_1079)
			(plus_60 x_27731 (succ_65 zero_66) x_27732))
		(add_200 x_27731 zero_66 (succ_65 x_27703) z_1079))))
(assert (forall ((x_27734 Nat_325))
	(add_200 x_27734 zero_66 zero_66 x_27734)))
(declare-fun mul_4 (Nat_325 Nat_325 Nat_325 Nat_325) Bool)
(assert (forall ((x_27735 Nat_325) (x_27736 Nat_325) (x_27737 Nat_325) (x_27738 Nat_325) (x_27739 Nat_325) (x_27740 Nat_325) (x_27741 Nat_325) (fail_13 Nat_325))
	(=>	(and (mul_4 x_27735 zero_66 zero_66 zero_66)
			(mul_4 x_27736 (succ_65 zero_66) zero_66 zero_66)
			(mul_4 x_27737 zero_66 (succ_65 zero_66) zero_66)
			(mul_4 x_27738 zero_66 zero_66 (succ_65 zero_66))
			(add_200 x_27739 x_27736 x_27737 x_27738)
			(add_200 x_27740 zero_66 zero_66 zero_66)
			(add_200 x_27741 x_27735 x_27739 x_27740)
			(plus_60 fail_13 (succ_65 zero_66) x_27741))
		(mul_4 (succ_65 zero_66) (succ_65 zero_66) (succ_65 zero_66) (succ_65 zero_66)))))
(assert (forall ((x_27744 Nat_325) (x_27745 Nat_325) (x_27746 Nat_325) (x_27747 Nat_325) (x_27748 Nat_325) (x_27749 Nat_325) (x_27750 Nat_325) (fail_13 Nat_325) (x_27707 Nat_325) (x_27706 Nat_325) (x_27705 Nat_325))
	(=>	(and (diseqNat_325 x_27705 zero_66)
			(mul_4 x_27744 x_27705 x_27706 x_27707)
			(mul_4 x_27745 (succ_65 zero_66) x_27706 x_27707)
			(mul_4 x_27746 x_27705 (succ_65 zero_66) x_27707)
			(mul_4 x_27747 x_27705 x_27706 (succ_65 zero_66))
			(add_200 x_27748 x_27745 x_27746 x_27747)
			(add_200 x_27749 x_27705 x_27706 x_27707)
			(add_200 x_27750 x_27744 x_27748 x_27749)
			(plus_60 fail_13 (succ_65 zero_66) x_27750))
		(mul_4 fail_13 (succ_65 x_27705) (succ_65 x_27706) (succ_65 x_27707)))))
(assert (forall ((x_27753 Nat_325) (x_27754 Nat_325) (x_27755 Nat_325) (x_27756 Nat_325) (x_27757 Nat_325) (x_27758 Nat_325) (x_27759 Nat_325) (fail_13 Nat_325) (x_27707 Nat_325) (x_27706 Nat_325))
	(=>	(and (diseqNat_325 x_27706 zero_66)
			(mul_4 x_27753 zero_66 x_27706 x_27707)
			(mul_4 x_27754 (succ_65 zero_66) x_27706 x_27707)
			(mul_4 x_27755 zero_66 (succ_65 zero_66) x_27707)
			(mul_4 x_27756 zero_66 x_27706 (succ_65 zero_66))
			(add_200 x_27757 x_27754 x_27755 x_27756)
			(add_200 x_27758 zero_66 x_27706 x_27707)
			(add_200 x_27759 x_27753 x_27757 x_27758)
			(plus_60 fail_13 (succ_65 zero_66) x_27759))
		(mul_4 fail_13 (succ_65 zero_66) (succ_65 x_27706) (succ_65 x_27707)))))
(assert (forall ((x_27762 Nat_325) (x_27763 Nat_325) (x_27764 Nat_325) (x_27765 Nat_325) (x_27766 Nat_325) (x_27767 Nat_325) (x_27768 Nat_325) (fail_13 Nat_325) (x_27707 Nat_325) (x_27706 Nat_325) (x_27705 Nat_325))
	(=>	(and (diseqNat_325 x_27705 zero_66)
			(mul_4 x_27762 x_27705 x_27706 x_27707)
			(mul_4 x_27763 (succ_65 zero_66) x_27706 x_27707)
			(mul_4 x_27764 x_27705 (succ_65 zero_66) x_27707)
			(mul_4 x_27765 x_27705 x_27706 (succ_65 zero_66))
			(add_200 x_27766 x_27763 x_27764 x_27765)
			(add_200 x_27767 x_27705 x_27706 x_27707)
			(add_200 x_27768 x_27762 x_27766 x_27767)
			(plus_60 fail_13 (succ_65 zero_66) x_27768))
		(mul_4 fail_13 (succ_65 x_27705) (succ_65 x_27706) (succ_65 x_27707)))))
(assert (forall ((x_27771 Nat_325) (x_27772 Nat_325) (x_27773 Nat_325) (x_27774 Nat_325) (x_27775 Nat_325) (x_27776 Nat_325) (x_27777 Nat_325) (fail_13 Nat_325) (x_27707 Nat_325))
	(=>	(and (diseqNat_325 x_27707 zero_66)
			(mul_4 x_27771 zero_66 zero_66 x_27707)
			(mul_4 x_27772 (succ_65 zero_66) zero_66 x_27707)
			(mul_4 x_27773 zero_66 (succ_65 zero_66) x_27707)
			(mul_4 x_27774 zero_66 zero_66 (succ_65 zero_66))
			(add_200 x_27775 x_27772 x_27773 x_27774)
			(add_200 x_27776 zero_66 zero_66 x_27707)
			(add_200 x_27777 x_27771 x_27775 x_27776)
			(plus_60 fail_13 (succ_65 zero_66) x_27777))
		(mul_4 fail_13 (succ_65 zero_66) (succ_65 zero_66) (succ_65 x_27707)))))
(assert (forall ((x_27780 Nat_325) (x_27781 Nat_325) (x_27782 Nat_325) (x_27783 Nat_325) (x_27784 Nat_325) (x_27785 Nat_325) (x_27786 Nat_325) (fail_13 Nat_325) (x_27707 Nat_325) (x_27706 Nat_325) (x_27705 Nat_325))
	(=>	(and (diseqNat_325 x_27705 zero_66)
			(mul_4 x_27780 x_27705 x_27706 x_27707)
			(mul_4 x_27781 (succ_65 zero_66) x_27706 x_27707)
			(mul_4 x_27782 x_27705 (succ_65 zero_66) x_27707)
			(mul_4 x_27783 x_27705 x_27706 (succ_65 zero_66))
			(add_200 x_27784 x_27781 x_27782 x_27783)
			(add_200 x_27785 x_27705 x_27706 x_27707)
			(add_200 x_27786 x_27780 x_27784 x_27785)
			(plus_60 fail_13 (succ_65 zero_66) x_27786))
		(mul_4 fail_13 (succ_65 x_27705) (succ_65 x_27706) (succ_65 x_27707)))))
(assert (forall ((x_27789 Nat_325) (x_27790 Nat_325) (x_27791 Nat_325) (x_27792 Nat_325) (x_27793 Nat_325) (x_27794 Nat_325) (x_27795 Nat_325) (fail_13 Nat_325) (x_27707 Nat_325) (x_27706 Nat_325))
	(=>	(and (diseqNat_325 x_27706 zero_66)
			(mul_4 x_27789 zero_66 x_27706 x_27707)
			(mul_4 x_27790 (succ_65 zero_66) x_27706 x_27707)
			(mul_4 x_27791 zero_66 (succ_65 zero_66) x_27707)
			(mul_4 x_27792 zero_66 x_27706 (succ_65 zero_66))
			(add_200 x_27793 x_27790 x_27791 x_27792)
			(add_200 x_27794 zero_66 x_27706 x_27707)
			(add_200 x_27795 x_27789 x_27793 x_27794)
			(plus_60 fail_13 (succ_65 zero_66) x_27795))
		(mul_4 fail_13 (succ_65 zero_66) (succ_65 x_27706) (succ_65 x_27707)))))
(assert (forall ((x_27798 Nat_325) (x_27799 Nat_325) (x_27800 Nat_325) (x_27801 Nat_325) (x_27802 Nat_325) (x_27803 Nat_325) (x_27804 Nat_325) (fail_13 Nat_325) (x_27707 Nat_325) (x_27706 Nat_325) (x_27705 Nat_325))
	(=>	(and (diseqNat_325 x_27705 zero_66)
			(mul_4 x_27798 x_27705 x_27706 x_27707)
			(mul_4 x_27799 (succ_65 zero_66) x_27706 x_27707)
			(mul_4 x_27800 x_27705 (succ_65 zero_66) x_27707)
			(mul_4 x_27801 x_27705 x_27706 (succ_65 zero_66))
			(add_200 x_27802 x_27799 x_27800 x_27801)
			(add_200 x_27803 x_27705 x_27706 x_27707)
			(add_200 x_27804 x_27798 x_27802 x_27803)
			(plus_60 fail_13 (succ_65 zero_66) x_27804))
		(mul_4 fail_13 (succ_65 x_27705) (succ_65 x_27706) (succ_65 x_27707)))))
(assert (forall ((x_27706 Nat_325) (x_27705 Nat_325))
	(mul_4 zero_66 (succ_65 x_27705) (succ_65 x_27706) zero_66)))
(assert (forall ((x_27705 Nat_325) (z_1080 Nat_325))
	(mul_4 zero_66 (succ_65 x_27705) zero_66 z_1080)))
(assert (forall ((y_1133 Nat_325) (z_1080 Nat_325))
	(mul_4 zero_66 zero_66 y_1133 z_1080)))
(assert (forall ((x_27810 Nat_325) (x_27811 Nat_325) (x_27812 Nat_325) (x_27708 Nat_325) (y_1134 Nat_325) (z_1081 Nat_325))
	(=>	(and true
			(diseqNat_325 x_27810 x_27812)
			(mul_4 x_27810 x_27708 y_1134 z_1081)
			(times_14 x_27811 x_27708 y_1134)
			(times_14 x_27812 x_27811 z_1081))
		false)))
(assert (forall ((x_27813 Nat_325) (x_27814 Nat_325) (x_27815 Nat_325) (x_27816 Nat_325) (x_27709 Nat_325) (y_1135 Nat_325) (z_1082 Nat_325))
	(=>	(and true
			(diseqNat_325 x_27814 x_27816)
			(times_14 x_27813 y_1135 z_1082)
			(times_14 x_27814 x_27709 x_27813)
			(times_14 x_27815 x_27709 y_1135)
			(times_14 x_27816 x_27815 z_1082))
		false)))
(assert (forall ((x_27817 Nat_325) (x_27818 Nat_325) (x_27819 Nat_325) (x_27820 Nat_325) (x_27710 Nat_325) (y_1136 Nat_325) (z_1083 Nat_325))
	(=>	(and true
			(diseqNat_325 x_27818 x_27820)
			(plus_60 x_27817 y_1136 z_1083)
			(plus_60 x_27818 x_27710 x_27817)
			(plus_60 x_27819 x_27710 y_1136)
			(plus_60 x_27820 x_27819 z_1083))
		false)))
(assert (forall ((x_27821 Nat_325) (x_27822 Nat_325) (x_27711 Nat_325) (y_1137 Nat_325))
	(=>	(and true
			(diseqNat_325 x_27821 x_27822)
			(times_14 x_27821 x_27711 y_1137)
			(times_14 x_27822 y_1137 x_27711))
		false)))
(assert (forall ((x_27823 Nat_325) (x_27824 Nat_325) (x_27712 Nat_325) (y_1138 Nat_325))
	(=>	(and true
			(diseqNat_325 x_27823 x_27824)
			(plus_60 x_27823 x_27712 y_1138)
			(plus_60 x_27824 y_1138 x_27712))
		false)))
(assert (forall ((x_27825 Nat_325) (x_27826 Nat_325) (x_27827 Nat_325) (x_27828 Nat_325) (x_27829 Nat_325) (x_27713 Nat_325) (y_1139 Nat_325) (z_1084 Nat_325))
	(=>	(and true
			(diseqNat_325 x_27826 x_27829)
			(plus_60 x_27825 y_1139 z_1084)
			(times_14 x_27826 x_27713 x_27825)
			(times_14 x_27827 x_27713 y_1139)
			(times_14 x_27828 x_27713 z_1084)
			(plus_60 x_27829 x_27827 x_27828))
		false)))
(assert (forall ((x_27830 Nat_325) (x_27831 Nat_325) (x_27832 Nat_325) (x_27833 Nat_325) (x_27834 Nat_325) (x_27714 Nat_325) (y_1140 Nat_325) (z_1085 Nat_325))
	(=>	(and true
			(diseqNat_325 x_27831 x_27834)
			(plus_60 x_27830 x_27714 y_1140)
			(times_14 x_27831 x_27830 z_1085)
			(times_14 x_27832 x_27714 z_1085)
			(times_14 x_27833 y_1140 z_1085)
			(plus_60 x_27834 x_27832 x_27833))
		false)))
(assert (forall ((x_27835 Nat_325) (x_27715 Nat_325))
	(=>	(and true
			(diseqNat_325 x_27835 x_27715)
			(times_14 x_27835 x_27715 (succ_65 zero_66)))
		false)))
(assert (forall ((x_27836 Nat_325) (x_27716 Nat_325))
	(=>	(and true
			(diseqNat_325 x_27836 x_27716)
			(times_14 x_27836 (succ_65 zero_66) x_27716))
		false)))
(assert (forall ((x_27837 Nat_325) (x_27717 Nat_325))
	(=>	(and true
			(diseqNat_325 x_27837 x_27717)
			(plus_60 x_27837 x_27717 zero_66))
		false)))
(assert (forall ((x_27838 Nat_325) (x_27718 Nat_325))
	(=>	(and true
			(diseqNat_325 x_27838 x_27718)
			(plus_60 x_27838 zero_66 x_27718))
		false)))
(assert (forall ((x_27839 Nat_325) (x_27719 Nat_325))
	(=>	(and true
			(diseqNat_325 x_27839 zero_66)
			(times_14 x_27839 x_27719 zero_66))
		false)))
(assert (forall ((x_27840 Nat_325) (x_27720 Nat_325))
	(=>	(and true
			(diseqNat_325 x_27840 zero_66)
			(times_14 x_27840 zero_66 x_27720))
		false)))
(check-sat)
